c This is QMaxSAT 2017 based on 14.07
c This is Glucose 3.0
c This is MiniSat 2.2.0
c WARNING: for repeatability, setting FPU to use double precision
c card = mrwto, comp = 0, pmodel = 0, narr = 12, mct = 52, verb = 0
cr firstCPXsol 0 0 0
c top = 1525567
c |  Number of variables:    162498                                           |
c |  Number of clauses:      178792968                                        |
c |  Weight of hard clauses: 1525567                                          |
c |  Number of soft clauses: 31824                                            |
c |  Number of unit soft clauses: 31824                                       |
c |  Maximum Cardinality (by unit): 18306792     (18306792    )               |
c last restart ## conflicts  :  27 16163 
o 19778 | cpuTime 17.1225 s
c Sum of weights = 1525566
c A number of soft clauses remained = 2652
c MRWTO encoding for Pseudo-Boolean Constraints
c sizeMax=19778
c No.0 Divisor=12	generated by pow1
c No.1 Divisor=12	generated by pow1
c No.2 Divisor=12	generated by pow1
c No.3 Divisor=12	generated by pow1
c p0= 12	p1= 12	p2= 12	p3= 12	
c number of digits = 5
c linkingVar[0].size = 12, linkingVar[1].size = 12, linkingVar[2].size = 12, linkingVar[3].size = 12, linkingVar[4].size = 1, 
c Pseudo-Boolean Constraints: 80521 variables and 846850 clauses
c Sum of weights = 1525566
c A number of soft clauses remained = 2652
c MRWTO encoding for Pseudo-Boolean Constraints
c sizeMax=19778
c No.0 Divisor=12	generated by pow1
c No.1 Divisor=12	generated by pow1
c No.2 Divisor=12	generated by pow1
c No.3 Divisor=12	generated by pow1
c p0= 12	p1= 12	p2= 12	p3= 12	
c number of digits = 5
c linkingVar[0].size = 12, linkingVar[1].size = 12, linkingVar[2].size = 12, linkingVar[3].size = 12, linkingVar[4].size = 1, 
c Pseudo-Boolean Constraints: 80521 variables and 846850 clauses
c Sum of weights = 1525566
c A number of soft clauses remained = 2652
c MRWTO encoding for Pseudo-Boolean Constraints
c sizeMax=19778
c No.0 Divisor=12	generated by pow1
c No.1 Divisor=12	generated by pow1
c No.2 Divisor=12	generated by pow1
c No.3 Divisor=12	generated by pow1
c p0= 12	p1= 12	p2= 12	p3= 12	
c number of digits = 5
c linkingVar[0].size = 12, linkingVar[1].size = 12, linkingVar[2].size = 12, linkingVar[3].size = 12, linkingVar[4].size = 1, 
c Pseudo-Boolean Constraints: 80521 variables and 846850 clauses
c Sum of weights = 1525566
c A number of soft clauses remained = 2652
c MRWTO encoding for Pseudo-Boolean Constraints
c sizeMax=19778
c No.0 Divisor=12	generated by pow1
c No.1 Divisor=12	generated by pow1
c No.2 Divisor=12	generated by pow1
c No.3 Divisor=12	generated by pow1
c p0= 12	p1= 12	p2= 12	p3= 12	
c number of digits = 5
c linkingVar[0].size = 12, linkingVar[1].size = 12, linkingVar[2].size = 12, linkingVar[3].size = 12, linkingVar[4].size = 1, 
c Pseudo-Boolean Constraints: 80521 variables and 846850 clauses
c Sum of weights = 1525566
c A number of soft clauses remained = 2652
c MRWTO encoding for Pseudo-Boolean Constraints
c sizeMax=19778
c No.0 Divisor=12	generated by pow1
c No.1 Divisor=12	generated by pow1
c No.2 Divisor=12	generated by pow1
c No.3 Divisor=12	generated by pow1
c p0= 12	p1= 12	p2= 12	p3= 12	
c number of digits = 5
c linkingVar[0].size = 12, linkingVar[1].size = 12, linkingVar[2].size = 12, linkingVar[3].size = 12, linkingVar[4].size = 1, 
c Pseudo-Boolean Constraints: 80521 variables and 846850 clauses
c Sum of weights = 1525566
c A number of soft clauses remained = 2652
c MRWTO encoding for Pseudo-Boolean Constraints
c sizeMax=19778
c No.0 Divisor=12	generated by pow1
c No.1 Divisor=12	generated by pow1
c No.2 Divisor=12	generated by pow1
c No.3 Divisor=12	generated by pow1
c p0= 12	p1= 12	p2= 12	p3= 12	
c number of digits = 5
c linkingVar[0].size = 12, linkingVar[1].size = 12, linkingVar[2].size = 12, linkingVar[3].size = 12, linkingVar[4].size = 1, 
c Pseudo-Boolean Constraints: 80521 variables and 846850 clauses
c Sum of weights = 1525566
c A number of soft clauses remained = 2652
c MRWTO encoding for Pseudo-Boolean Constraints
c sizeMax=19778
c No.0 Divisor=12	generated by pow1
c No.1 Divisor=12	generated by pow1
c No.2 Divisor=12	generated by pow1
c No.3 Divisor=12	generated by pow1
c p0= 12	p1= 12	p2= 12	p3= 12	
c number of digits = 5
c linkingVar[0].size = 12, linkingVar[1].size = 12, linkingVar[2].size = 12, linkingVar[3].size = 12, linkingVar[4].size = 1, 
c Pseudo-Boolean Constraints: 80521 variables and 846850 clauses
c Sum of weights = 1525566
c A number of soft clauses remained = 2652
c MRWTO encoding for Pseudo-Boolean Constraints
c sizeMax=19778
c No.0 Divisor=12	generated by pow1
c No.1 Divisor=12	generated by pow1
c No.2 Divisor=12	generated by pow1
c No.3 Divisor=12	generated by pow1
c p0= 12	p1= 12	p2= 12	p3= 12	
c number of digits = 5
c linkingVar[0].size = 12, linkingVar[1].size = 12, linkingVar[2].size = 12, linkingVar[3].size = 12, linkingVar[4].size = 1, 
c Pseudo-Boolean Constraints: 80521 variables and 846850 clauses
c Sum of weights = 1525566
c A number of soft clauses remained = 2652
c MRWTO encoding for Pseudo-Boolean Constraints
c sizeMax=19778
c No.0 Divisor=12	generated by pow1
c No.1 Divisor=12	generated by pow1
c No.2 Divisor=12	generated by pow1
c No.3 Divisor=12	generated by pow1
c p0= 12	p1= 12	p2= 12	p3= 12	
c number of digits = 5
c linkingVar[0].size = 12, linkingVar[1].size = 12, linkingVar[2].size = 12, linkingVar[3].size = 12, linkingVar[4].size = 1, 
c Pseudo-Boolean Constraints: 80521 variables and 846850 clauses
c Sum of weights = 1525566
c A number of soft clauses remained = 2652
c MRWTO encoding for Pseudo-Boolean Constraints
c sizeMax=19778
c No.0 Divisor=12	generated by pow1
c No.1 Divisor=12	generated by pow1
c No.2 Divisor=12	generated by pow1
c No.3 Divisor=12	generated by pow1
c p0= 12	p1= 12	p2= 12	p3= 12	
c number of digits = 5
c linkingVar[0].size = 12, linkingVar[1].size = 12, linkingVar[2].size = 12, linkingVar[3].size = 12, linkingVar[4].size = 1, 
c Pseudo-Boolean Constraints: 80521 variables and 846850 clauses
c Sum of weights = 1525566
c A number of soft clauses remained = 2652
c MRWTO encoding for Pseudo-Boolean Constraints
c sizeMax=19778
c No.0 Divisor=12	generated by pow1
c No.1 Divisor=12	generated by pow1
c No.2 Divisor=12	generated by pow1
c No.3 Divisor=12	generated by pow1
c p0= 12	p1= 12	p2= 12	p3= 12	
c number of digits = 5
c linkingVar[0].size = 12, linkingVar[1].size = 12, linkingVar[2].size = 12, linkingVar[3].size = 12, linkingVar[4].size = 1, 
c Pseudo-Boolean Constraints: 80521 variables and 846850 clauses
c Sum of weights = 1525566
c A number of soft clauses remained = 2652
c MRWTO encoding for Pseudo-Boolean Constraints
c sizeMax=19778
c No.0 Divisor=12	generated by pow1
c No.1 Divisor=12	generated by pow1
c No.2 Divisor=12	generated by pow1
c No.3 Divisor=12	generated by pow1
c p0= 12	p1= 12	p2= 12	p3= 12	
c number of digits = 5
c linkingVar[0].size = 12, linkingVar[1].size = 12, linkingVar[2].size = 12, linkingVar[3].size = 12, linkingVar[4].size = 1, 
c Pseudo-Boolean Constraints: 80521 variables and 846850 clauses
c last restart ## conflicts  :  368 54873 
o 8657 | cpuTime 226.693 s
c last restart ## conflicts  :  160 85592 
o 6972 | cpuTime 2049.02 s
c last restart ## conflicts  :  1018 67754 
o 4795 | cpuTime 2270.81 s
s UNKNOWN
c Search is stopped by a limit (maybe time-limit)
cr positiVarArr: [ | 31@1(1->31) | 1090@1(21->50) | 1197@1(24->1) | 1559@1(30->51) | 1581@1(31->21) | 1755@1(34->39) | 2000@1(39->24) | 2578@1(50->30) | 2634@1(51->34) | 2733@2(1->29) | 2757@2(2->1) | 3160@2(9->40) | 4169@2(29->9) | 4526@2(36->2) | 4768@2(40->36) | 5416@3(1->8) | 5675@3(6->7) | 5721@3(7->1) | 5778@3(8->6) | 8157@4(1->45) | 10401@4(45->1) | 10854@5(1->38) | 12741@5(38->1) | 13557@6(1->37) | 14086@6(11->46) | 14363@6(17->11) | 14473@6(19->17) | 15411@6(37->19) | 15861@6(46->1) | 16251@7(1->27) | 17109@7(18->1) | 17261@7(20->49) | 17490@7(25->18) | 17596@7(27->20) | 18745@7(49->25) | 18980@8(1->52) | 21581@8(52->1) | 21637@9(1->5) | 21881@9(5->41) | 22257@9(13->1) | 22373@9(15->13) | 23754@9(41->42) | 23779@9(42->15) | 24379@10(1->43) | 24493@10(4->1) | 26524@10(43->4) | 27062@11(1->22) | 27640@11(12->28) | 27763@11(14->47) | 27843@11(16->23) | 28148@11(22->16) | 28196@11(23->12) | 28341@11(26->1) | 28477@11(28->33) | 28718@11(33->14) | 29458@11(47->26) | 29792@12(1->48) | 29880@12(3->32) | 30256@12(10->44) | 31357@12(32->1) | 31515@12(35->3) | 32015@12(44->35) | 32198@12(48->10) | ]
cr the 1-th chain: [ 1->31->21->50->30->51->34->39->24->1 ] (#non-depot=8) {#cumul.=9}
cr the 2-th chain: [ 1->29->9->40->36->2->1 ] (#non-depot=5) {#cumul.=14}
cr the 3-th chain: [ 1->8->6->7->1 ] (#non-depot=3) {#cumul.=17}
cr the 4-th chain: [ 1->45->1 ] (#non-depot=1) {#cumul.=18}
cr the 5-th chain: [ 1->38->1 ] (#non-depot=1) {#cumul.=19}
cr the 6-th chain: [ 1->37->19->17->11->46->1 ] (#non-depot=5) {#cumul.=24}
cr the 7-th chain: [ 1->27->20->49->25->18->1 ] (#non-depot=5) {#cumul.=29}
cr the 8-th chain: [ 1->52->1 ] (#non-depot=1) {#cumul.=30}
cr the 9-th chain: [ 1->5->41->42->15->13->1 ] (#non-depot=5) {#cumul.=35}
cr the 10-th chain: [ 1->43->4->1 ] (#non-depot=2) {#cumul.=37}
cr the 11-th chain: [ 1->22->16->23->12->28->33->14->47->26->1 ] (#non-depot=9) {#cumul.=46}
cr the 12-th chain: [ 1->48->10->44->35->3->32->1 ] (#non-depot=6) {#cumul.=52}
c Latest Answer = 0 by 4 loops
c restarts              : 18149
c conflicts             : 4208968        (1177 /sec)
c decisions             : 119312681      (0.00 % random) (33376 /sec)
c propagations          : 8420385866     (2355471 /sec)
c conflict literals     : 4490821311     (2.49 % deleted)
c Memory used           : 15157.00 MB
c CPU time              : 3574.82 s
